\ Model PCCSP
\ LP format - for model browsing. Use MPS format to capture full model detail.
Minimize
  2 x[0,1] + 3 x[0,2] + 9 x[1,2] + x[1,3] + 2 x[1,4] + x[2,3] + x[2,5]
   + x[3,4] + x[3,5] + 5 x[4,5] + 2 x[4,6] + x[5,6]
Subject To
 s1: x[0,1] + x[0,2] = 1
 s2: x[1,0] + x[2,0] = 0
 t1: x[4,6] + x[5,6] = 1
 t2: x[6,4] + x[6,5] = 0
 flow_1: - x[0,1] + x[1,0] + x[1,2] + x[1,3] + x[1,4] - x[2,1] - x[3,1]
   - x[4,1] = 0
 flow_2: - x[0,2] - x[1,2] + x[2,0] + x[2,1] + x[2,3] + x[2,5] - x[3,2]
   - x[5,2] = 0
 flow_3: - x[1,3] - x[2,3] + x[3,1] + x[3,2] + x[3,4] + x[3,5] - x[4,3]
   - x[5,3] = 0
 flow_4: - x[1,4] - x[3,4] + x[4,1] + x[4,3] + x[4,5] + x[4,6] - x[5,4]
   - x[6,4] = 0
 flow_5: - x[2,5] - x[3,5] - x[4,5] + x[5,2] + x[5,3] + x[5,4] + x[5,6]
   - x[6,5] = 0
 deg_1: x[0,1] + x[1,0] + x[1,2] + x[1,3] + x[1,4] + x[2,1] + x[3,1]
   + x[4,1] <= 2
 deg_2: x[0,2] + x[1,2] + x[2,0] + x[2,1] + x[2,3] + x[2,5] + x[3,2]
   + x[5,2] <= 2
 deg_3: x[1,3] + x[2,3] + x[3,1] + x[3,2] + x[3,4] + x[3,5] + x[4,3]
   + x[5,3] <= 2
 deg_4: x[1,4] + x[3,4] + x[4,1] + x[4,3] + x[4,5] + x[4,6] + x[5,4]
   + x[6,4] <= 2
 deg_5: x[2,5] + x[3,5] + x[4,5] + x[5,2] + x[5,3] + x[5,4] + x[5,6]
   + x[6,5] <= 2
 force00: x[0,0] = 0
 force03: x[0,3] = 0
 force04: x[0,4] = 0
 force05: x[0,5] = 0
 force06: x[0,6] = 0
 force11: x[1,1] = 0
 force15: x[1,5] = 0
 force16: x[1,6] = 0
 force22: x[2,2] = 0
 force24: x[2,4] = 0
 force26: x[2,6] = 0
 force30: x[3,0] = 0
 force33: x[3,3] = 0
 force36: x[3,6] = 0
 force40: x[4,0] = 0
 force42: x[4,2] = 0
 force44: x[4,4] = 0
 force50: x[5,0] = 0
 force51: x[5,1] = 0
 force55: x[5,5] = 0
 force60: x[6,0] = 0
 force61: x[6,1] = 0
 force62: x[6,2] = 0
 force63: x[6,3] = 0
 force66: x[6,6] = 0
 rc: 1.5 x[0,1] + 2 x[0,2] + 1.5 x[1,0] + 2.5 x[1,2] + 1.5 x[1,3]
   + 3 x[1,4] + 2 x[2,0] + 2.5 x[2,1] + 2 x[2,3] + 2.5 x[2,5] + 1.5 x[3,1]
   + 2 x[3,2] + 2.5 x[3,4] + 1.5 x[3,5] + 3 x[4,1] + 2.5 x[4,3] + 3 x[4,5]
   + 2.5 x[4,6] + 2.5 x[5,2] + 1.5 x[5,3] + 3 x[5,4] + 1.5 x[5,6]
   + 2.5 x[6,4] + 1.5 x[6,5] >= 12
Bounds
Binaries
 x[0,0] x[0,1] x[0,2] x[0,3] x[0,4] x[0,5] x[0,6] x[1,0] x[1,1] x[1,2]
 x[1,3] x[1,4] x[1,5] x[1,6] x[2,0] x[2,1] x[2,2] x[2,3] x[2,4] x[2,5]
 x[2,6] x[3,0] x[3,1] x[3,2] x[3,3] x[3,4] x[3,5] x[3,6] x[4,0] x[4,1]
 x[4,2] x[4,3] x[4,4] x[4,5] x[4,6] x[5,0] x[5,1] x[5,2] x[5,3] x[5,4]
 x[5,5] x[5,6] x[6,0] x[6,1] x[6,2] x[6,3] x[6,4] x[6,5] x[6,6]
End
